
  32    4
  10   10   10   10

   0   0   0   0   0   3 2 4 6 
  10  10  10  10  10   2 5 3 
   4  10  10  10  10   2 10 7 
   5  10  10  10  10   2 10 7 
   5  10  10  10  10   3 10 9 8 
   5  10  10  10  10   1 7 
   9  10  10  10  10   2 9 8 
   4  10  10  10  10   1 11 
   7  10  10  10  10   1 11 
   7  10  10  10  10   1 11 
   6  10  10  10  10   2 14 12 
   6  10  10  10  10   1 13 
   9  10  10  10  10   2 16 15 
   2  10  10  10  10   2 17 16 
   7  10  10  10  10   2 23 17 
   3  10  10  10  10   4 23 21 20 19 
   3  10  10  10  10   1 18 
   4  10  10  10  10   3 21 20 19 
  10  10  10  10  10   2 24 22 
   1  10  10  10  10   2 25 24 
   4  10  10  10  10   2 25 24 
   1  10  10  10  10   2 29 25 
   1  10  10  10  10   2 28 24 
   2  10  10  10  10   3 29 27 26 
   8  10  10  10  10   3 28 27 26 
   2  10  10  10  10   2 31 30 
   9  10  10  10  10   2 31 30 
   1  10  10  10  10   2 31 30 
   6  10  10  10  10   2 31 30 
   4  10  10  10  10   1 32
   8  10  10  10  10   1 32
   0   0   0   0   0   0 
